\ Model birth-death-regulation-capture-efficiency
\ LP format - for model browsing. Use MPS format to capture full model detail.
Minimize
  k_reg
Subject To
 R0: k_deg_2 = 1
 B_lb_0,_0: p[0,0] + 0.3 p[0,1] + 0.09 p[0,2] + 0.027 p[0,3]
   + 0.0081 p[0,4] + 0.3 p[1,0] + 0.09 p[1,1] + 0.027 p[1,2]
   + 0.0081 p[1,3] + 0.00243 p[1,4] + 0.09 p[2,0] + 0.027 p[2,1]
   + 0.0081 p[2,2] + 0.00243 p[2,3] + 0.000729 p[2,4] + 0.027 p[3,0]
   + 0.0081 p[3,1] + 0.00243 p[3,2] + 0.000729 p[3,3] + 0.0002187 p[3,4]
   + 0.0081 p[4,0] + 0.00243 p[4,1] + 0.000729 p[4,2] + 0.0002187 p[4,3]
   + 6.561e-05 p[4,4] + 0.00243 p[5,0] + 0.000729 p[5,1] + 0.0002187 p[5,2]
   + 6.561e-05 p[5,3] + 1.9683e-05 p[5,4] + 0.000729 p[6,0]
   + 0.0002187 p[6,1] + 6.561e-05 p[6,2] + 1.9683e-05 p[6,3]
   + 5.9049e-06 p[6,4] >= 0.3693446064139942
 B_ub_0,_0: p[0,0] + 0.3 p[0,1] + 0.09 p[0,2] + 0.027 p[0,3]
   + 0.0081 p[0,4] + 0.3 p[1,0] + 0.09 p[1,1] + 0.027 p[1,2]
   + 0.0081 p[1,3] + 0.00243 p[1,4] + 0.09 p[2,0] + 0.027 p[2,1]
   + 0.0081 p[2,2] + 0.00243 p[2,3] + 0.000729 p[2,4] + 0.027 p[3,0]
   + 0.0081 p[3,1] + 0.00243 p[3,2] + 0.000729 p[3,3] + 0.0002187 p[3,4]
   + 0.0081 p[4,0] + 0.00243 p[4,1] + 0.000729 p[4,2] + 0.0002187 p[4,3]
   + 6.561e-05 p[4,4] + 0.00243 p[5,0] + 0.000729 p[5,1] + 0.0002187 p[5,2]
   + 6.561e-05 p[5,3] + 1.9683e-05 p[5,4] + 0.000729 p[6,0]
   + 0.0002187 p[6,1] + 6.561e-05 p[6,2] + 1.9683e-05 p[6,3]
   + 5.9049e-06 p[6,4] <= 0.4196
 B_lb_0,_1: 0.7 p[0,1] + 0.42 p[0,2] + 0.189 p[0,3] + 0.0756 p[0,4]
   + 0.21 p[1,1] + 0.126 p[1,2] + 0.0567 p[1,3] + 0.02268 p[1,4]
   + 0.063 p[2,1] + 0.0378 p[2,2] + 0.01701 p[2,3] + 0.006804 p[2,4]
   + 0.0189 p[3,1] + 0.01134 p[3,2] + 0.005103 p[3,3] + 0.0020412 p[3,4]
   + 0.00567 p[4,1] + 0.003402 p[4,2] + 0.0015309 p[4,3]
   + 0.00061236 p[4,4] + 0.001701 p[5,1] + 0.0010206 p[5,2]
   + 0.00045927 p[5,3] + 0.000183708 p[5,4] + 0.0005103 p[6,1]
   + 0.00030618 p[6,2] + 0.000137781 p[6,3] + 5.51124e-05 p[6,4]
   >= 0.1633446064139942
 B_ub_0,_1: 0.7 p[0,1] + 0.42 p[0,2] + 0.189 p[0,3] + 0.0756 p[0,4]
   + 0.21 p[1,1] + 0.126 p[1,2] + 0.0567 p[1,3] + 0.02268 p[1,4]
   + 0.063 p[2,1] + 0.0378 p[2,2] + 0.01701 p[2,3] + 0.006804 p[2,4]
   + 0.0189 p[3,1] + 0.01134 p[3,2] + 0.005103 p[3,3] + 0.0020412 p[3,4]
   + 0.00567 p[4,1] + 0.003402 p[4,2] + 0.0015309 p[4,3]
   + 0.00061236 p[4,4] + 0.001701 p[5,1] + 0.0010206 p[5,2]
   + 0.00045927 p[5,3] + 0.000183708 p[5,4] + 0.0005103 p[6,1]
   + 0.00030618 p[6,2] + 0.000137781 p[6,3] + 5.51124e-05 p[6,4] <= 0.2082
 B_lb_0,_2: 0.49 p[0,2] + 0.441 p[0,3] + 0.2646 p[0,4] + 0.147 p[1,2]
   + 0.1323 p[1,3] + 0.07938 p[1,4] + 0.0441 p[2,2] + 0.03969 p[2,3]
   + 0.023814 p[2,4] + 0.01323 p[3,2] + 0.011907 p[3,3] + 0.0071442 p[3,4]
   + 0.003969 p[4,2] + 0.0035721 p[4,3] + 0.00214326 p[4,4]
   + 0.0011907 p[5,2] + 0.00107163 p[5,3] + 0.000642978 p[5,4]
   + 0.00035721 p[6,2] + 0.000321489 p[6,3] + 1.9289340000000461e-04 p[6,4]
   >= 0.0205446064139942
 B_ub_0,_2: 0.49 p[0,2] + 0.441 p[0,3] + 0.2646 p[0,4] + 0.147 p[1,2]
   + 0.1323 p[1,3] + 0.07938 p[1,4] + 0.0441 p[2,2] + 0.03969 p[2,3]
   + 0.023814 p[2,4] + 0.01323 p[3,2] + 0.011907 p[3,3] + 0.0071442 p[3,4]
   + 0.003969 p[4,2] + 0.0035721 p[4,3] + 0.00214326 p[4,4]
   + 0.0011907 p[5,2] + 0.00107163 p[5,3] + 0.000642978 p[5,4]
   + 0.00035721 p[6,2] + 0.000321489 p[6,3] + 1.9289340000000461e-04 p[6,4]
   <= 0.055405
 B_lb_0,_3: 0.343 p[0,3] + 0.4116 p[0,4] + 0.1029 p[1,3] + 0.12348 p[1,4]
   + 0.03087 p[2,3] + 0.037044 p[2,4] + 0.009261 p[3,3] + 0.0111132 p[3,4]
   + 0.0027783 p[4,3] + 0.00333396 p[4,4] + 0.00083349 p[5,3]
   + 0.00100018799999992 p[5,4] + 0.000250047 p[6,3]
   + 3.0005639999998451e-04 p[6,4] >= -0.0166553935860058
 B_ub_0,_3: 0.343 p[0,3] + 0.4116 p[0,4] + 0.1029 p[1,3] + 0.12348 p[1,4]
   + 0.03087 p[2,3] + 0.037044 p[2,4] + 0.009261 p[3,3] + 0.0111132 p[3,4]
   + 0.0027783 p[4,3] + 0.00333396 p[4,4] + 0.00083349 p[5,3]
   + 0.00100018799999992 p[5,4] + 0.000250047 p[6,3]
   + 3.0005639999998451e-04 p[6,4] <= 0.0116
 B_lb_1,_0: 0.7 p[1,0] + 0.21 p[1,1] + 0.063 p[1,2] + 0.0189 p[1,3]
   + 0.00567 p[1,4] + 0.42 p[2,0] + 0.126 p[2,1] + 0.0378 p[2,2]
   + 0.01134 p[2,3] + 0.003402 p[2,4] + 0.189 p[3,0] + 0.0567 p[3,1]
   + 0.01701 p[3,2] + 0.005103 p[3,3] + 0.0015309 p[3,4] + 0.0756 p[4,0]
   + 0.02268 p[4,1] + 0.006804 p[4,2] + 0.0020412 p[4,3]
   + 0.00061236 p[4,4] + 0.02835 p[5,0] + 0.008505 p[5,1]
   + 0.0025515 p[5,2] + 0.00076545 p[5,3] + 0.000229635 p[5,4]
   + 0.010206 p[6,0] + 0.0030618 p[6,1] + 0.00091854 p[6,2]
   + 0.000275562 p[6,3] + 8.26686e-05 p[6,4] >= 0.1547446064139942
 B_ub_1,_0: 0.7 p[1,0] + 0.21 p[1,1] + 0.063 p[1,2] + 0.0189 p[1,3]
   + 0.00567 p[1,4] + 0.42 p[2,0] + 0.126 p[2,1] + 0.0378 p[2,2]
   + 0.01134 p[2,3] + 0.003402 p[2,4] + 0.189 p[3,0] + 0.0567 p[3,1]
   + 0.01701 p[3,2] + 0.005103 p[3,3] + 0.0015309 p[3,4] + 0.0756 p[4,0]
   + 0.02268 p[4,1] + 0.006804 p[4,2] + 0.0020412 p[4,3]
   + 0.00061236 p[4,4] + 0.02835 p[5,0] + 0.008505 p[5,1]
   + 0.0025515 p[5,2] + 0.00076545 p[5,3] + 0.000229635 p[5,4]
   + 0.010206 p[6,0] + 0.0030618 p[6,1] + 0.00091854 p[6,2]
   + 0.000275562 p[6,3] + 8.26686e-05 p[6,4] <= 0.199
 B_lb_1,_1: 0.49 p[1,1] + 0.294 p[1,2] + 0.1323 p[1,3] + 0.05292 p[1,4]
   + 0.294 p[2,1] + 0.1764 p[2,2] + 0.07938 p[2,3] + 0.031752 p[2,4]
   + 0.1323 p[3,1] + 0.07938 p[3,2] + 0.035721 p[3,3] + 0.0142884 p[3,4]
   + 0.05292 p[4,1] + 0.031752 p[4,2] + 0.0142884 p[4,3]
   + 0.00571536 p[4,4] + 0.019845 p[5,1] + 0.011907 p[5,2]
   + 0.00535815 p[5,3] + 0.00214326 p[5,4] + 0.0071442 p[6,1]
   + 0.00428652 p[6,2] + 0.00192893400000016 p[6,3]
   + 7.7157360000001843e-04 p[6,4] >= 0.0321446064139942
 B_ub_1,_1: 0.49 p[1,1] + 0.294 p[1,2] + 0.1323 p[1,3] + 0.05292 p[1,4]
   + 0.294 p[2,1] + 0.1764 p[2,2] + 0.07938 p[2,3] + 0.031752 p[2,4]
   + 0.1323 p[3,1] + 0.07938 p[3,2] + 0.035721 p[3,3] + 0.0142884 p[3,4]
   + 0.05292 p[4,1] + 0.031752 p[4,2] + 0.0142884 p[4,3]
   + 0.00571536 p[4,4] + 0.019845 p[5,1] + 0.011907 p[5,2]
   + 0.00535815 p[5,3] + 0.00214326 p[5,4] + 0.0071442 p[6,1]
   + 0.00428652 p[6,2] + 0.00192893400000016 p[6,3]
   + 7.7157360000001843e-04 p[6,4] <= 0.0684
 B_lb_1,_2: 0.343 p[1,2] + 0.3087 p[1,3] + 0.18522 p[1,4] + 0.2058 p[2,2]
   + 0.18522 p[2,3] + 0.111132 p[2,4] + 0.09261 p[3,2] + 0.083349 p[3,3]
   + 0.0500094 p[3,4] + 0.037044 p[4,2] + 0.0333396 p[4,3]
   + 0.0200037600000022 p[4,4] + 0.0138915 p[5,2]
   + 0.0125023500000014 p[5,3] + 0.00750141 p[5,4] + 0.00500094 p[6,2]
   + 0.00450084599999966 p[6,3] + 0.00270050759999986 p[6,4]
   >= -0.0132553935860058
 B_ub_1,_2: 0.343 p[1,2] + 0.3087 p[1,3] + 0.18522 p[1,4] + 0.2058 p[2,2]
   + 0.18522 p[2,3] + 0.111132 p[2,4] + 0.09261 p[3,2] + 0.083349 p[3,3]
   + 0.0500094 p[3,4] + 0.037044 p[4,2] + 0.0333396 p[4,3]
   + 0.0200037600000022 p[4,4] + 0.0138915 p[5,2]
   + 0.0125023500000014 p[5,3] + 0.00750141 p[5,4] + 0.00500094 p[6,2]
   + 0.00450084599999966 p[6,3] + 0.00270050759999986 p[6,4] <= 0.016
 B_lb_1,_3: 0.2401 p[1,3] + 0.28812 p[1,4] + 0.14406 p[2,3]
   + 0.172872 p[2,4] + 0.064827 p[3,3] + 0.0777924 p[3,4]
   + 0.0259308 p[4,3] + 0.0311169600000004 p[4,4] + 0.00972405 p[5,3]
   + 0.0116688600000003 p[5,4] + 0.00350065800000009 p[6,3]
   + 0.00420078959999973 p[6,4] >= -0.0230553935860058
 B_ub_1,_3: 0.2401 p[1,3] + 0.28812 p[1,4] + 0.14406 p[2,3]
   + 0.172872 p[2,4] + 0.064827 p[3,3] + 0.0777924 p[3,4]
   + 0.0259308 p[4,3] + 0.0311169600000004 p[4,4] + 0.00972405 p[5,3]
   + 0.0116688600000003 p[5,4] + 0.00350065800000009 p[6,3]
   + 0.00420078959999973 p[6,4] <= 1
 B_lb_2,_0: 0.49 p[2,0] + 0.147 p[2,1] + 0.0441 p[2,2] + 0.01323 p[2,3]
   + 0.003969 p[2,4] + 0.441 p[3,0] + 0.1323 p[3,1] + 0.03969 p[3,2]
   + 0.011907 p[3,3] + 0.0035721 p[3,4] + 0.2646 p[4,0] + 0.07938 p[4,1]
   + 0.023814 p[4,2] + 0.0071442 p[4,3] + 0.00214326 p[4,4] + 0.1323 p[5,0]
   + 0.03969 p[5,1] + 0.011907 p[5,2] + 0.0035721 p[5,3]
   + 0.00107163 p[5,4] + 0.059535 p[6,0] + 0.0178605 p[6,1]
   + 0.00535815 p[6,2] + 0.00160744500000014 p[6,3]
   + 4.8223350000001154e-04 p[6,4] >= 0.0205446064139942
 B_ub_2,_0: 0.49 p[2,0] + 0.147 p[2,1] + 0.0441 p[2,2] + 0.01323 p[2,3]
   + 0.003969 p[2,4] + 0.441 p[3,0] + 0.1323 p[3,1] + 0.03969 p[3,2]
   + 0.011907 p[3,3] + 0.0035721 p[3,4] + 0.2646 p[4,0] + 0.07938 p[4,1]
   + 0.023814 p[4,2] + 0.0071442 p[4,3] + 0.00214326 p[4,4] + 0.1323 p[5,0]
   + 0.03969 p[5,1] + 0.011907 p[5,2] + 0.0035721 p[5,3]
   + 0.00107163 p[5,4] + 0.059535 p[6,0] + 0.0178605 p[6,1]
   + 0.00535815 p[6,2] + 0.00160744500000014 p[6,3]
   + 4.8223350000001154e-04 p[6,4] <= 0.0558
 B_lb_2,_1: 0.343 p[2,1] + 0.2058 p[2,2] + 0.09261 p[2,3] + 0.037044 p[2,4]
   + 0.3087 p[3,1] + 0.18522 p[3,2] + 0.083349 p[3,3] + 0.0333396 p[3,4]
   + 0.18522 p[4,1] + 0.111132 p[4,2] + 0.0500094 p[4,3]
   + 0.0200037600000022 p[4,4] + 0.09261 p[5,1] + 0.055566 p[5,2]
   + 0.0250047 p[5,3] + 0.0100018799999992 p[5,4] + 0.0416745 p[6,1]
   + 0.0250047 p[6,2] + 0.0112521149999991 p[6,3]
   + 0.00450084599999977 p[6,4] >= -0.0166553935860058
 B_ub_2,_1: 0.343 p[2,1] + 0.2058 p[2,2] + 0.09261 p[2,3] + 0.037044 p[2,4]
   + 0.3087 p[3,1] + 0.18522 p[3,2] + 0.083349 p[3,3] + 0.0333396 p[3,4]
   + 0.18522 p[4,1] + 0.111132 p[4,2] + 0.0500094 p[4,3]
   + 0.0200037600000022 p[4,4] + 0.09261 p[5,1] + 0.055566 p[5,2]
   + 0.0250047 p[5,3] + 0.0100018799999992 p[5,4] + 0.0416745 p[6,1]
   + 0.0250047 p[6,2] + 0.0112521149999991 p[6,3]
   + 0.00450084599999977 p[6,4] <= 0.0114
 B_lb_2,_2: 0.2401 p[2,2] + 0.21609 p[2,3] + 0.129654 p[2,4]
   + 0.21609 p[3,2] + 0.194481 p[3,3] + 0.1166885999999923 p[3,4]
   + 0.129654 p[4,2] + 0.1166885999999923 p[4,3]
   + 0.0700131600000008 p[4,4] + 0.064827 p[5,2] + 0.0583443 p[5,3]
   + 0.0350065800000009 p[5,4] + 0.0291721500000003 p[6,2]
   + 0.0262549350000007 p[6,3] + 0.015752960999999 p[6,4]
   >= -0.0230553935860058
 B_ub_2,_2: 0.2401 p[2,2] + 0.21609 p[2,3] + 0.129654 p[2,4]
   + 0.21609 p[3,2] + 0.194481 p[3,3] + 0.1166885999999923 p[3,4]
   + 0.129654 p[4,2] + 0.1166885999999923 p[4,3]
   + 0.0700131600000008 p[4,4] + 0.064827 p[5,2] + 0.0583443 p[5,3]
   + 0.0350065800000009 p[5,4] + 0.0291721500000003 p[6,2]
   + 0.0262549350000007 p[6,3] + 0.015752960999999 p[6,4] <= 1
 B_lb_2,_3: 0.16807 p[2,3] + 0.201684 p[2,4] + 0.151263 p[3,3]
   + 0.1815156000000005 p[3,4] + 0.0907578 p[4,3]
   + 0.1089093600000111 p[4,4] + 0.0453789 p[5,3]
   + 0.0544546800000036 p[5,4] + 0.0204205050000014 p[6,3]
   + 0.024504605999998 p[6,4] >= -0.0230553935860058
 B_ub_2,_3: 0.16807 p[2,3] + 0.201684 p[2,4] + 0.151263 p[3,3]
   + 0.1815156000000005 p[3,4] + 0.0907578 p[4,3]
   + 0.1089093600000111 p[4,4] + 0.0453789 p[5,3]
   + 0.0544546800000036 p[5,4] + 0.0204205050000014 p[6,3]
   + 0.024504605999998 p[6,4] <= 1
 B_lb_3,_0: 0.343 p[3,0] + 0.1029 p[3,1] + 0.03087 p[3,2] + 0.009261 p[3,3]
   + 0.0027783 p[3,4] + 0.4116 p[4,0] + 0.12348 p[4,1] + 0.037044 p[4,2]
   + 0.0111132 p[4,3] + 0.00333396 p[4,4] + 0.3087 p[5,0] + 0.09261 p[5,1]
   + 0.027783 p[5,2] + 0.0083349 p[5,3] + 0.00250047 p[5,4]
   + 0.18522 p[6,0] + 0.055566 p[6,1] + 0.0166698 p[6,2]
   + 0.00500094 p[6,3] + 0.00150028199999992 p[6,4] >= -0.0162553935860058
 B_ub_3,_0: 0.343 p[3,0] + 0.1029 p[3,1] + 0.03087 p[3,2] + 0.009261 p[3,3]
   + 0.0027783 p[3,4] + 0.4116 p[4,0] + 0.12348 p[4,1] + 0.037044 p[4,2]
   + 0.0111132 p[4,3] + 0.00333396 p[4,4] + 0.3087 p[5,0] + 0.09261 p[5,1]
   + 0.027783 p[5,2] + 0.0083349 p[5,3] + 0.00250047 p[5,4]
   + 0.18522 p[6,0] + 0.055566 p[6,1] + 0.0166698 p[6,2]
   + 0.00500094 p[6,3] + 0.00150028199999992 p[6,4] <= 0.0122
 B_lb_3,_1: 0.2401 p[3,1] + 0.14406 p[3,2] + 0.064827 p[3,3]
   + 0.0259308 p[3,4] + 0.28812 p[4,1] + 0.172872 p[4,2] + 0.0777924 p[4,3]
   + 0.0311169600000004 p[4,4] + 0.21609 p[5,1] + 0.129654 p[5,2]
   + 0.0583443 p[5,3] + 0.0233377200000006 p[5,4] + 0.129654 p[6,1]
   + 0.0777924 p[6,2] + 0.0350065800000009 p[6,3]
   + 0.0140026319999991 p[6,4] >= -0.0230553935860058
 B_ub_3,_1: 0.2401 p[3,1] + 0.14406 p[3,2] + 0.064827 p[3,3]
   + 0.0259308 p[3,4] + 0.28812 p[4,1] + 0.172872 p[4,2] + 0.0777924 p[4,3]
   + 0.0311169600000004 p[4,4] + 0.21609 p[5,1] + 0.129654 p[5,2]
   + 0.0583443 p[5,3] + 0.0233377200000006 p[5,4] + 0.129654 p[6,1]
   + 0.0777924 p[6,2] + 0.0350065800000009 p[6,3]
   + 0.0140026319999991 p[6,4] <= 1
 B_lb_3,_2: 0.16807 p[3,2] + 0.151263 p[3,3] + 0.0907578 p[3,4]
   + 0.201684 p[4,2] + 0.1815156000000005 p[4,3]
   + 0.1089093600000111 p[4,4] + 0.151263 p[5,2]
   + 0.1361367000000138 p[5,3] + 0.0816820200000054 p[5,4]
   + 0.0907578 p[6,2] + 0.0816820200000054 p[6,3]
   + 0.049009211999996 p[6,4] >= -0.0230553935860058
 B_ub_3,_2: 0.16807 p[3,2] + 0.151263 p[3,3] + 0.0907578 p[3,4]
   + 0.201684 p[4,2] + 0.1815156000000005 p[4,3]
   + 0.1089093600000111 p[4,4] + 0.151263 p[5,2]
   + 0.1361367000000138 p[5,3] + 0.0816820200000054 p[5,4]
   + 0.0907578 p[6,2] + 0.0816820200000054 p[6,3]
   + 0.049009211999996 p[6,4] <= 1
 B_lb_3,_3: 0.117649 p[3,3] + 0.1411788000000027 p[3,4]
   + 0.1411788000000027 p[4,3] + 0.169414559999984 p[4,4]
   + 0.10588409999999 p[5,3] + 0.127060920000006 p[5,4]
   + 0.063530460000003 p[6,3] + 0.0762365519999978 p[6,4]
   >= -0.0230553935860058
 B_ub_3,_3: 0.117649 p[3,3] + 0.1411788000000027 p[3,4]
   + 0.1411788000000027 p[4,3] + 0.169414559999984 p[4,4]
   + 0.10588409999999 p[5,3] + 0.127060920000006 p[5,4]
   + 0.063530460000003 p[6,3] + 0.0762365519999978 p[6,4] <= 1
 B_lb_4,_0: 0.2401 p[4,0] + 0.07203 p[4,1] + 0.021609 p[4,2]
   + 0.0064827 p[4,3] + 0.00194481 p[4,4] + 0.36015 p[5,0]
   + 0.108045 p[5,1] + 0.0324135 p[5,2] + 0.00972405 p[5,3]
   + 0.00291721500000007 p[5,4] + 0.324135 p[6,0] + 0.0972405 p[6,1]
   + 0.0291721500000003 p[6,2] + 0.00875164500000022 p[6,3]
   + 0.00262549349999983 p[6,4] >= -0.0230553935860058
 B_ub_4,_0: 0.2401 p[4,0] + 0.07203 p[4,1] + 0.021609 p[4,2]
   + 0.0064827 p[4,3] + 0.00194481 p[4,4] + 0.36015 p[5,0]
   + 0.108045 p[5,1] + 0.0324135 p[5,2] + 0.00972405 p[5,3]
   + 0.00291721500000007 p[5,4] + 0.324135 p[6,0] + 0.0972405 p[6,1]
   + 0.0291721500000003 p[6,2] + 0.00875164500000022 p[6,3]
   + 0.00262549349999983 p[6,4] <= 1
 B_lb_4,_1: 0.16807 p[4,1] + 0.100842 p[4,2] + 0.0453789 p[4,3]
   + 0.0181515600000018 p[4,4] + 0.252105 p[5,1] + 0.151263 p[5,2]
   + 0.0680683500000069 p[5,3] + 0.0272273400000018 p[5,4]
   + 0.2268945000000006 p[6,1] + 0.1361367000000138 p[6,2]
   + 0.0612615150000041 p[6,3] + 0.024504605999998 p[6,4]
   >= -0.0230553935860058
 B_ub_4,_1: 0.16807 p[4,1] + 0.100842 p[4,2] + 0.0453789 p[4,3]
   + 0.0181515600000018 p[4,4] + 0.252105 p[5,1] + 0.151263 p[5,2]
   + 0.0680683500000069 p[5,3] + 0.0272273400000018 p[5,4]
   + 0.2268945000000006 p[6,1] + 0.1361367000000138 p[6,2]
   + 0.0612615150000041 p[6,3] + 0.024504605999998 p[6,4] <= 1
 B_lb_4,_2: 0.117649 p[4,2] + 0.105884100000002 p[4,3]
   + 0.063530459999994 p[4,4] + 0.1764735000000034 p[5,2]
   + 0.158826149999985 p[5,3] + 0.0952956900000045 p[5,4]
   + 0.158826149999985 p[6,2] + 0.1429435350000067 p[6,3]
   + 0.0857661209999975 p[6,4] >= -0.0230553935860058
 B_ub_4,_2: 0.117649 p[4,2] + 0.105884100000002 p[4,3]
   + 0.063530459999994 p[4,4] + 0.1764735000000034 p[5,2]
   + 0.158826149999985 p[5,3] + 0.0952956900000045 p[5,4]
   + 0.158826149999985 p[6,2] + 0.1429435350000067 p[6,3]
   + 0.0857661209999975 p[6,4] <= 1
 B_lb_4,_3: 0.0823543 p[4,3] + 0.0988251599999928 p[4,4]
   + 0.1235314499999911 p[5,3] + 0.1482377400000087 p[5,4]
   + 0.1111783050000066 p[6,3] + 0.1334139659999869 p[6,4]
   >= -0.0230553935860058
 B_ub_4,_3: 0.0823543 p[4,3] + 0.0988251599999928 p[4,4]
   + 0.1235314499999911 p[5,3] + 0.1482377400000087 p[5,4]
   + 0.1111783050000066 p[6,3] + 0.1334139659999869 p[6,4] <= 1
 B_marginal_lb_0: p1[0] + 0.3 p1[1] + 0.09 p1[2] + 0.027 p1[3]
   + 0.0081 p1[4] + 0.00243 p1[5] + 0.000729 p1[6] >= 0.5594326530612246
 B_marginal_ub_0: p1[0] + 0.3 p1[1] + 0.09 p1[2] + 0.027 p1[3]
   + 0.0081 p1[4] + 0.00243 p1[5] + 0.000729 p1[6] <= 0.676
 B_marginal_lb_1: 0.7 p1[1] + 0.42 p1[2] + 0.189 p1[3] + 0.0756 p1[4]
   + 0.02835 p1[5] + 0.010206 p1[6] >= 0.1618326530612245
 B_marginal_ub_1: 0.7 p1[1] + 0.42 p1[2] + 0.189 p1[3] + 0.0756 p1[4]
   + 0.02835 p1[5] + 0.010206 p1[6] <= 0.2768
 B_marginal_lb_2: 0.49 p1[2] + 0.441 p1[3] + 0.2646 p1[4] + 0.1323 p1[5]
   + 0.059535 p1[6] >= -0.0365673469387755
 B_marginal_ub_2: 0.49 p1[2] + 0.441 p1[3] + 0.2646 p1[4] + 0.1323 p1[5]
   + 0.059535 p1[6] <= 0.067
 B_marginal_lb_3: 0.343 p1[3] + 0.4116 p1[4] + 0.3087 p1[5] + 0.18522 p1[6]
   >= -0.0827673469387755
 B_marginal_ub_3: 0.343 p1[3] + 0.4116 p1[4] + 0.3087 p1[5] + 0.18522 p1[6]
   <= 0.0132
 B_marginal_lb_4: 0.2401 p1[4] + 0.36015 p1[5] + 0.324135 p1[6]
   >= -0.0903673469387755
 B_marginal_ub_4: 0.2401 p1[4] + 0.36015 p1[5] + 0.324135 p1[6] <= 1
 B_marginal_lb_0: p2[0] + 0.3 p2[1] + 0.09 p2[2] + 0.027 p2[3]
   + 0.0081 p2[4] >= 0.5121128571428573
 B_marginal_ub_0: p2[0] + 0.3 p2[1] + 0.09 p2[2] + 0.027 p2[3]
   + 0.0081 p2[4] <= 0.6682
 B_marginal_lb_1: 0.7 p2[1] + 0.42 p2[2] + 0.189 p2[3] + 0.0756 p2[4]
   >= 0.1261128571428572
 B_marginal_ub_1: 0.7 p2[1] + 0.42 p2[2] + 0.189 p2[3] + 0.0756 p2[4]
   <= 0.2808
 B_marginal_lb_2: 0.49 p2[2] + 0.441 p2[3] + 0.2646 p2[4]
   >= -0.0724921428571428
 B_marginal_ub_2: 0.49 p2[2] + 0.441 p2[3] + 0.2646 p2[4] <= 0.0706
 B_marginal_lb_3: 0.343 p2[3] + 0.4116 p2[4] >= -0.1222871428571428
 B_marginal_ub_3: 0.343 p2[3] + 0.4116 p2[4] <= 0.013
 frechet_lb_0,_0: - p[0,0] + p1[0] + p2[0] <= 1
 frechet_ub_x1_0: p[0,0] - p1[0] <= 0
 frechet_ub_x2_0: p[0,0] - p2[0] <= 0
 frechet_lb_0,_1: - p[0,1] + p1[0] + p2[1] <= 1
 frechet_ub_x1_0: p[0,1] - p1[0] <= 0
 frechet_ub_x2_1: p[0,1] - p2[1] <= 0
 frechet_lb_0,_2: - p[0,2] + p1[0] + p2[2] <= 1
 frechet_ub_x1_0: p[0,2] - p1[0] <= 0
 frechet_ub_x2_2: p[0,2] - p2[2] <= 0
 frechet_lb_0,_3: - p[0,3] + p1[0] + p2[3] <= 1
 frechet_ub_x1_0: p[0,3] - p1[0] <= 0
 frechet_ub_x2_3: p[0,3] - p2[3] <= 0
 frechet_lb_0,_4: - p[0,4] + p1[0] + p2[4] <= 1
 frechet_ub_x1_0: p[0,4] - p1[0] <= 0
 frechet_ub_x2_4: p[0,4] - p2[4] <= 0
 frechet_lb_1,_0: - p[1,0] + p1[1] + p2[0] <= 1
 frechet_ub_x1_1: p[1,0] - p1[1] <= 0
 frechet_ub_x2_0: p[1,0] - p2[0] <= 0
 frechet_lb_1,_1: - p[1,1] + p1[1] + p2[1] <= 1
 frechet_ub_x1_1: p[1,1] - p1[1] <= 0
 frechet_ub_x2_1: p[1,1] - p2[1] <= 0
 frechet_lb_1,_2: - p[1,2] + p1[1] + p2[2] <= 1
 frechet_ub_x1_1: p[1,2] - p1[1] <= 0
 frechet_ub_x2_2: p[1,2] - p2[2] <= 0
 frechet_lb_1,_3: - p[1,3] + p1[1] + p2[3] <= 1
 frechet_ub_x1_1: p[1,3] - p1[1] <= 0
 frechet_ub_x2_3: p[1,3] - p2[3] <= 0
 frechet_lb_1,_4: - p[1,4] + p1[1] + p2[4] <= 1
 frechet_ub_x1_1: p[1,4] - p1[1] <= 0
 frechet_ub_x2_4: p[1,4] - p2[4] <= 0
 frechet_lb_2,_0: - p[2,0] + p1[2] + p2[0] <= 1
 frechet_ub_x1_2: p[2,0] - p1[2] <= 0
 frechet_ub_x2_0: p[2,0] - p2[0] <= 0
 frechet_lb_2,_1: - p[2,1] + p1[2] + p2[1] <= 1
 frechet_ub_x1_2: p[2,1] - p1[2] <= 0
 frechet_ub_x2_1: p[2,1] - p2[1] <= 0
 frechet_lb_2,_2: - p[2,2] + p1[2] + p2[2] <= 1
 frechet_ub_x1_2: p[2,2] - p1[2] <= 0
 frechet_ub_x2_2: p[2,2] - p2[2] <= 0
 frechet_lb_2,_3: - p[2,3] + p1[2] + p2[3] <= 1
 frechet_ub_x1_2: p[2,3] - p1[2] <= 0
 frechet_ub_x2_3: p[2,3] - p2[3] <= 0
 frechet_lb_2,_4: - p[2,4] + p1[2] + p2[4] <= 1
 frechet_ub_x1_2: p[2,4] - p1[2] <= 0
 frechet_ub_x2_4: p[2,4] - p2[4] <= 0
 frechet_lb_3,_0: - p[3,0] + p1[3] + p2[0] <= 1
 frechet_ub_x1_3: p[3,0] - p1[3] <= 0
 frechet_ub_x2_0: p[3,0] - p2[0] <= 0
 frechet_lb_3,_1: - p[3,1] + p1[3] + p2[1] <= 1
 frechet_ub_x1_3: p[3,1] - p1[3] <= 0
 frechet_ub_x2_1: p[3,1] - p2[1] <= 0
 frechet_lb_3,_2: - p[3,2] + p1[3] + p2[2] <= 1
 frechet_ub_x1_3: p[3,2] - p1[3] <= 0
 frechet_ub_x2_2: p[3,2] - p2[2] <= 0
 frechet_lb_3,_3: - p[3,3] + p1[3] + p2[3] <= 1
 frechet_ub_x1_3: p[3,3] - p1[3] <= 0
 frechet_ub_x2_3: p[3,3] - p2[3] <= 0
 frechet_lb_3,_4: - p[3,4] + p1[3] + p2[4] <= 1
 frechet_ub_x1_3: p[3,4] - p1[3] <= 0
 frechet_ub_x2_4: p[3,4] - p2[4] <= 0
 frechet_lb_4,_0: - p[4,0] + p1[4] + p2[0] <= 1
 frechet_ub_x1_4: p[4,0] - p1[4] <= 0
 frechet_ub_x2_0: p[4,0] - p2[0] <= 0
 frechet_lb_4,_1: - p[4,1] + p1[4] + p2[1] <= 1
 frechet_ub_x1_4: p[4,1] - p1[4] <= 0
 frechet_ub_x2_1: p[4,1] - p2[1] <= 0
 frechet_lb_4,_2: - p[4,2] + p1[4] + p2[2] <= 1
 frechet_ub_x1_4: p[4,2] - p1[4] <= 0
 frechet_ub_x2_2: p[4,2] - p2[2] <= 0
 frechet_lb_4,_3: - p[4,3] + p1[4] + p2[3] <= 1
 frechet_ub_x1_4: p[4,3] - p1[4] <= 0
 frechet_ub_x2_3: p[4,3] - p2[3] <= 0
 frechet_lb_4,_4: - p[4,4] + p1[4] + p2[4] <= 1
 frechet_ub_x1_4: p[4,4] - p1[4] <= 0
 frechet_ub_x2_4: p[4,4] - p2[4] <= 0
 frechet_lb_5,_0: - p[5,0] + p1[5] + p2[0] <= 1
 frechet_ub_x1_5: p[5,0] - p1[5] <= 0
 frechet_ub_x2_0: p[5,0] - p2[0] <= 0
 frechet_lb_5,_1: - p[5,1] + p1[5] + p2[1] <= 1
 frechet_ub_x1_5: p[5,1] - p1[5] <= 0
 frechet_ub_x2_1: p[5,1] - p2[1] <= 0
 frechet_lb_5,_2: - p[5,2] + p1[5] + p2[2] <= 1
 frechet_ub_x1_5: p[5,2] - p1[5] <= 0
 frechet_ub_x2_2: p[5,2] - p2[2] <= 0
 frechet_lb_5,_3: - p[5,3] + p1[5] + p2[3] <= 1
 frechet_ub_x1_5: p[5,3] - p1[5] <= 0
 frechet_ub_x2_3: p[5,3] - p2[3] <= 0
 frechet_lb_5,_4: - p[5,4] + p1[5] + p2[4] <= 1
 frechet_ub_x1_5: p[5,4] - p1[5] <= 0
 frechet_ub_x2_4: p[5,4] - p2[4] <= 0
 frechet_lb_6,_0: - p[6,0] + p1[6] + p2[0] <= 1
 frechet_ub_x1_6: p[6,0] - p1[6] <= 0
 frechet_ub_x2_0: p[6,0] - p2[0] <= 0
 frechet_lb_6,_1: - p[6,1] + p1[6] + p2[1] <= 1
 frechet_ub_x1_6: p[6,1] - p1[6] <= 0
 frechet_ub_x2_1: p[6,1] - p2[1] <= 0
 frechet_lb_6,_2: - p[6,2] + p1[6] + p2[2] <= 1
 frechet_ub_x1_6: p[6,2] - p1[6] <= 0
 frechet_ub_x2_2: p[6,2] - p2[2] <= 0
 frechet_lb_6,_3: - p[6,3] + p1[6] + p2[3] <= 1
 frechet_ub_x1_6: p[6,3] - p1[6] <= 0
 frechet_ub_x2_3: p[6,3] - p2[3] <= 0
 frechet_lb_6,_4: - p[6,4] + p1[6] + p2[4] <= 1
 frechet_ub_x1_6: p[6,4] - p1[6] <= 0
 frechet_ub_x2_4: p[6,4] - p2[4] <= 0
 Distribution: p[0,0] + p[0,1] + p[0,2] + p[0,3] + p[0,4] + p[1,0] + p[1,1]
   + p[1,2] + p[1,3] + p[1,4] + p[2,0] + p[2,1] + p[2,2] + p[2,3] + p[2,4]
   + p[3,0] + p[3,1] + p[3,2] + p[3,3] + p[3,4] + p[4,0] + p[4,1] + p[4,2]
   + p[4,3] + p[4,4] + p[5,0] + p[5,1] + p[5,2] + p[5,3] + p[5,4] + p[6,0]
   + p[6,1] + p[6,2] + p[6,3] + p[6,4] <= 1
 Distribution_x1: p1[0] + p1[1] + p1[2] + p1[3] + p1[4] + p1[5] + p1[6]
   <= 1
 Distribution_x2: p2[0] + p2[1] + p2[2] + p2[3] + p2[4] <= 1
 Equation_0,_0: [ - p[0,0] * k_tx_1 - p[0,0] * k_tx_2 + p[0,1] * k_deg_2
   + p[1,0] * k_deg_1 + p[1,1] * k_reg ] = 0
 Equation_0,_1: [ p[0,0] * k_tx_2 - p[0,1] * k_tx_1 - p[0,1] * k_tx_2
   - p[0,1] * k_deg_2 + 2 p[0,2] * k_deg_2 + p[1,1] * k_deg_1
   + 2 p[1,2] * k_reg ] = 0
 Equation_0,_2: [ p[0,1] * k_tx_2 - p[0,2] * k_tx_1 - p[0,2] * k_tx_2
   - 2 p[0,2] * k_deg_2 + 3 p[0,3] * k_deg_2 + p[1,2] * k_deg_1
   + 3 p[1,3] * k_reg ] = 0
 Equation_0,_3: [ p[0,2] * k_tx_2 - p[0,3] * k_tx_1 - p[0,3] * k_tx_2
   - 3 p[0,3] * k_deg_2 + 4 p[0,4] * k_deg_2 + p[1,3] * k_deg_1
   + 4 p[1,4] * k_reg ] = 0
 Equation_1,_0: [ p[0,0] * k_tx_1 - p[1,0] * k_tx_1 - p[1,0] * k_tx_2
   - p[1,0] * k_deg_1 + p[1,1] * k_deg_2 + 2 p[2,0] * k_deg_1
   + 2 p[2,1] * k_reg ] = 0
 Equation_1,_1: [ p[0,1] * k_tx_1 + p[1,0] * k_tx_2 - p[1,1] * k_tx_1
   - p[1,1] * k_tx_2 - p[1,1] * k_deg_1 - p[1,1] * k_deg_2 - p[1,1] * k_reg
   + 2 p[1,2] * k_deg_2 + 2 p[2,1] * k_deg_1 + 4 p[2,2] * k_reg ] = 0
 Equation_1,_2: [ p[0,2] * k_tx_1 + p[1,1] * k_tx_2 - p[1,2] * k_tx_1
   - p[1,2] * k_tx_2 - p[1,2] * k_deg_1 - 2 p[1,2] * k_deg_2
   - 2 p[1,2] * k_reg + 3 p[1,3] * k_deg_2 + 2 p[2,2] * k_deg_1
   + 6 p[2,3] * k_reg ] = 0
 Equation_1,_3: [ p[0,3] * k_tx_1 + p[1,2] * k_tx_2 - p[1,3] * k_tx_1
   - p[1,3] * k_tx_2 - p[1,3] * k_deg_1 - 3 p[1,3] * k_deg_2
   - 3 p[1,3] * k_reg + 4 p[1,4] * k_deg_2 + 2 p[2,3] * k_deg_1
   + 8 p[2,4] * k_reg ] = 0
 Equation_2,_0: [ p[1,0] * k_tx_1 - p[2,0] * k_tx_1 - p[2,0] * k_tx_2
   - 2 p[2,0] * k_deg_1 + p[2,1] * k_deg_2 + 3 p[3,0] * k_deg_1
   + 3 p[3,1] * k_reg ] = 0
 Equation_2,_1: [ p[1,1] * k_tx_1 + p[2,0] * k_tx_2 - p[2,1] * k_tx_1
   - p[2,1] * k_tx_2 - 2 p[2,1] * k_deg_1 - p[2,1] * k_deg_2
   - 2 p[2,1] * k_reg + 2 p[2,2] * k_deg_2 + 3 p[3,1] * k_deg_1
   + 6 p[3,2] * k_reg ] = 0
 Equation_2,_2: [ p[1,2] * k_tx_1 + p[2,1] * k_tx_2 - p[2,2] * k_tx_1
   - p[2,2] * k_tx_2 - 2 p[2,2] * k_deg_1 - 2 p[2,2] * k_deg_2
   - 4 p[2,2] * k_reg + 3 p[2,3] * k_deg_2 + 3 p[3,2] * k_deg_1
   + 9 p[3,3] * k_reg ] = 0
 Equation_2,_3: [ p[1,3] * k_tx_1 + p[2,2] * k_tx_2 - p[2,3] * k_tx_1
   - p[2,3] * k_tx_2 - 2 p[2,3] * k_deg_1 - 3 p[2,3] * k_deg_2
   - 6 p[2,3] * k_reg + 4 p[2,4] * k_deg_2 + 3 p[3,3] * k_deg_1
   + 12 p[3,4] * k_reg ] = 0
 Equation_3,_0: [ p[2,0] * k_tx_1 - p[3,0] * k_tx_1 - p[3,0] * k_tx_2
   - 3 p[3,0] * k_deg_1 + p[3,1] * k_deg_2 + 4 p[4,0] * k_deg_1
   + 4 p[4,1] * k_reg ] = 0
 Equation_3,_1: [ p[2,1] * k_tx_1 + p[3,0] * k_tx_2 - p[3,1] * k_tx_1
   - p[3,1] * k_tx_2 - 3 p[3,1] * k_deg_1 - p[3,1] * k_deg_2
   - 3 p[3,1] * k_reg + 2 p[3,2] * k_deg_2 + 4 p[4,1] * k_deg_1
   + 8 p[4,2] * k_reg ] = 0
 Equation_3,_2: [ p[2,2] * k_tx_1 + p[3,1] * k_tx_2 - p[3,2] * k_tx_1
   - p[3,2] * k_tx_2 - 3 p[3,2] * k_deg_1 - 2 p[3,2] * k_deg_2
   - 6 p[3,2] * k_reg + 3 p[3,3] * k_deg_2 + 4 p[4,2] * k_deg_1
   + 12 p[4,3] * k_reg ] = 0
 Equation_3,_3: [ p[2,3] * k_tx_1 + p[3,2] * k_tx_2 - p[3,3] * k_tx_1
   - p[3,3] * k_tx_2 - 3 p[3,3] * k_deg_1 - 3 p[3,3] * k_deg_2
   - 9 p[3,3] * k_reg + 4 p[3,4] * k_deg_2 + 4 p[4,3] * k_deg_1
   + 16 p[4,4] * k_reg ] = 0
 Equation_4,_0: [ p[3,0] * k_tx_1 - p[4,0] * k_tx_1 - p[4,0] * k_tx_2
   - 4 p[4,0] * k_deg_1 + p[4,1] * k_deg_2 + 5 p[5,0] * k_deg_1
   + 5 p[5,1] * k_reg ] = 0
 Equation_4,_1: [ p[3,1] * k_tx_1 + p[4,0] * k_tx_2 - p[4,1] * k_tx_1
   - p[4,1] * k_tx_2 - 4 p[4,1] * k_deg_1 - p[4,1] * k_deg_2
   - 4 p[4,1] * k_reg + 2 p[4,2] * k_deg_2 + 5 p[5,1] * k_deg_1
   + 10 p[5,2] * k_reg ] = 0
 Equation_4,_2: [ p[3,2] * k_tx_1 + p[4,1] * k_tx_2 - p[4,2] * k_tx_1
   - p[4,2] * k_tx_2 - 4 p[4,2] * k_deg_1 - 2 p[4,2] * k_deg_2
   - 8 p[4,2] * k_reg + 3 p[4,3] * k_deg_2 + 5 p[5,2] * k_deg_1
   + 15 p[5,3] * k_reg ] = 0
 Equation_4,_3: [ p[3,3] * k_tx_1 + p[4,2] * k_tx_2 - p[4,3] * k_tx_1
   - p[4,3] * k_tx_2 - 4 p[4,3] * k_deg_1 - 3 p[4,3] * k_deg_2
   - 12 p[4,3] * k_reg + 4 p[4,4] * k_deg_2 + 5 p[5,3] * k_deg_1
   + 20 p[5,4] * k_reg ] = 0
 Equation_5,_0: [ p[4,0] * k_tx_1 - p[5,0] * k_tx_1 - p[5,0] * k_tx_2
   - 5 p[5,0] * k_deg_1 + p[5,1] * k_deg_2 + 6 p[6,0] * k_deg_1
   + 6 p[6,1] * k_reg ] = 0
 Equation_5,_1: [ p[4,1] * k_tx_1 + p[5,0] * k_tx_2 - p[5,1] * k_tx_1
   - p[5,1] * k_tx_2 - 5 p[5,1] * k_deg_1 - p[5,1] * k_deg_2
   - 5 p[5,1] * k_reg + 2 p[5,2] * k_deg_2 + 6 p[6,1] * k_deg_1
   + 12 p[6,2] * k_reg ] = 0
 Equation_5,_2: [ p[4,2] * k_tx_1 + p[5,1] * k_tx_2 - p[5,2] * k_tx_1
   - p[5,2] * k_tx_2 - 5 p[5,2] * k_deg_1 - 2 p[5,2] * k_deg_2
   - 10 p[5,2] * k_reg + 3 p[5,3] * k_deg_2 + 6 p[6,2] * k_deg_1
   + 18 p[6,3] * k_reg ] = 0
 Equation_5,_3: [ p[4,3] * k_tx_1 + p[5,2] * k_tx_2 - p[5,3] * k_tx_1
   - p[5,3] * k_tx_2 - 5 p[5,3] * k_deg_1 - 3 p[5,3] * k_deg_2
   - 15 p[5,3] * k_reg + 4 p[5,4] * k_deg_2 + 6 p[6,3] * k_deg_1
   + 24 p[6,4] * k_reg ] = 0
Bounds
 p[0,0] <= 1
 p[0,1] <= 1
 p[0,2] <= 1
 p[0,3] <= 1
 p[0,4] <= 1
 p[1,0] <= 1
 p[1,1] <= 1
 p[1,2] <= 1
 p[1,3] <= 1
 p[1,4] <= 1
 p[2,0] <= 1
 p[2,1] <= 1
 p[2,2] <= 1
 p[2,3] <= 1
 p[2,4] <= 1
 p[3,0] <= 1
 p[3,1] <= 1
 p[3,2] <= 1
 p[3,3] <= 1
 p[3,4] <= 1
 p[4,0] <= 1
 p[4,1] <= 1
 p[4,2] <= 1
 p[4,3] <= 1
 p[4,4] <= 1
 p[5,0] <= 1
 p[5,1] <= 1
 p[5,2] <= 1
 p[5,3] <= 1
 p[5,4] <= 1
 p[6,0] <= 1
 p[6,1] <= 1
 p[6,2] <= 1
 p[6,3] <= 1
 p[6,4] <= 1
 p1[0] <= 1
 p1[1] <= 1
 p1[2] <= 1
 p1[3] <= 1
 p1[4] <= 1
 p1[5] <= 1
 p1[6] <= 1
 p2[0] <= 1
 p2[1] <= 1
 p2[2] <= 1
 p2[3] <= 1
 p2[4] <= 1
 k_tx_1 <= 10
 k_tx_2 <= 10
 k_deg_1 <= 10
 k_deg_2 <= 10
 k_reg <= 10
End
